param n := 60;
param c := 10000
param : V : p w :=
   0	 504	 494
   1	 260	 250
   2	 266	 256
   3	 439	 429
   4	 276	 266
   5	 315	 305
   6	 388	 378
   7	 278	 268
   8	 364	 354
   9	 492	 482
  10	 261	 251
  11	 277	 267
  12	 474	 464
  13	 269	 259
  14	 287	 277
  15	 408	 398
  16	 286	 276
  17	 336	 326
  18	 400	 390
  19	 270	 260
  20	 360	 350
  21	 492	 482
  22	 261	 251
  23	 277	 267
  24	 440	 430
  25	 272	 262
  26	 318	 308
  27	 410	 400
  28	 271	 261
  29	 349	 339
  30	 508	 498
  31	 260	 250
  32	 262	 252
  33	 372	 362
  34	 298	 288
  35	 360	 350
  36	 508	 498
  37	 260	 250
  38	 262	 252
  39	 469	 459
  40	 270	 260
  41	 291	 281
  42	 411	 401
  43	 281	 271
  44	 338	 328
  45	 377	 367
  46	 298	 288
  47	 355	 345
  48	 362	 352
  49	 289	 279
  50	 379	 369
  51	 486	 476
  52	 271	 261
  53	 273	 263
  54	 489	 479
  55	 264	 254
  56	 277	 267
  57	 446	 436
  58	 290	 280
  59	 294	 284
;

set E :=
   0	   6
   0	   7
   0	  11
   0	  16
   0	  21
   0	  22
   0	  23
   0	  25
   0	  27
   0	  30
   0	  32
   0	  34
   0	  40
   0	  41
   1	   5
   1	   6
   1	  10
   1	  11
   1	  13
   1	  17
   1	  21
   1	  22
   1	  24
   1	  34
   1	  35
   1	  40
   1	  42
   1	  44
   1	  50
   1	  56
   1	  57
   1	  58
   1	  59
   2	   8
   2	  20
   2	  24
   2	  31
   2	  34
   2	  44
   2	  51
   3	   8
   3	  12
   3	  18
   3	  19
   3	  20
   3	  21
   3	  25
   3	  28
   3	  29
   3	  41
   3	  50
   3	  52
   3	  58
   4	  12
   4	  16
   4	  20
   4	  24
   4	  27
   4	  29
   4	  31
   4	  37
   4	  39
   4	  42
   4	  50
   4	  51
   5	   6
   5	   7
   5	   8
   5	   9
   5	  18
   5	  19
   5	  26
   5	  29
   5	  30
   5	  33
   5	  34
   5	  35
   5	  43
   5	  45
   5	  46
   5	  47
   5	  48
   5	  51
   5	  54
   6	   7
   6	  10
   6	  12
   6	  13
   6	  14
   6	  15
   6	  18
   6	  21
   6	  22
   6	  27
   6	  28
   6	  33
   6	  35
   6	  38
   6	  39
   6	  41
   6	  42
   6	  43
   6	  45
   6	  48
   6	  59
   7	  10
   7	  11
   7	  15
   7	  16
   7	  17
   7	  19
   7	  22
   7	  25
   7	  26
   7	  30
   7	  31
   7	  36
   7	  38
   7	  39
   7	  43
   7	  50
   7	  54
   7	  55
   7	  56
   7	  57
   8	   9
   8	  10
   8	  15
   8	  21
   8	  22
   8	  23
   8	  26
   8	  28
   8	  30
   8	  34
   8	  38
   8	  40
   8	  41
   8	  42
   8	  46
   8	  49
   8	  51
   8	  55
   8	  57
   8	  58
   8	  59
   9	  13
   9	  14
   9	  15
   9	  17
   9	  20
   9	  23
   9	  27
   9	  36
   9	  38
   9	  39
   9	  40
   9	  47
   9	  49
   9	  50
   9	  57
  10	  15
  10	  26
  10	  33
  10	  34
  10	  36
  10	  44
  10	  47
  10	  52
  11	  12
  11	  16
  11	  17
  11	  20
  11	  22
  11	  28
  11	  32
  11	  33
  11	  34
  11	  35
  11	  36
  11	  39
  11	  40
  11	  41
  11	  43
  11	  47
  11	  51
  11	  52
  12	  15
  12	  21
  12	  22
  12	  23
  12	  30
  12	  32
  12	  33
  12	  38
  12	  39
  12	  40
  12	  42
  12	  43
  12	  48
  12	  49
  12	  51
  12	  52
  12	  58
  12	  59
  13	  19
  13	  23
  13	  34
  13	  45
  13	  47
  13	  49
  13	  50
  13	  53
  13	  54
  14	  22
  14	  24
  14	  27
  14	  35
  14	  36
  14	  40
  14	  41
  14	  53
  14	  55
  14	  57
  14	  58
  15	  21
  15	  22
  15	  23
  15	  25
  15	  26
  15	  28
  15	  30
  15	  31
  15	  36
  15	  39
  15	  44
  15	  55
  16	  17
  16	  20
  16	  21
  16	  22
  16	  29
  16	  31
  16	  35
  16	  36
  16	  37
  16	  39
  16	  42
  16	  44
  16	  45
  16	  51
  16	  52
  16	  55
  16	  57
  16	  58
  17	  18
  17	  20
  17	  25
  17	  29
  17	  30
  17	  34
  17	  41
  17	  42
  17	  44
  17	  46
  17	  47
  17	  48
  17	  52
  17	  57
  18	  24
  18	  29
  18	  30
  18	  31
  18	  34
  18	  40
  18	  41
  18	  42
  18	  45
  18	  50
  18	  56
  18	  59
  19	  20
  19	  25
  19	  27
  19	  34
  19	  35
  19	  37
  19	  38
  19	  40
  19	  42
  19	  44
  19	  47
  19	  52
  19	  54
  19	  55
  19	  56
  19	  57
  20	  22
  20	  25
  20	  28
  20	  29
  20	  30
  20	  32
  20	  40
  20	  42
  20	  47
  20	  49
  20	  50
  20	  51
  20	  52
  20	  57
  21	  30
  21	  31
  21	  33
  21	  36
  21	  40
  21	  41
  21	  43
  21	  46
  21	  48
  21	  51
  21	  56
  21	  57
  21	  58
  22	  27
  22	  28
  22	  31
  22	  34
  22	  43
  22	  47
  22	  53
  22	  54
  22	  55
  23	  24
  23	  31
  23	  38
  23	  40
  23	  41
  23	  43
  23	  48
  23	  50
  23	  52
  24	  27
  24	  33
  24	  39
  24	  41
  24	  46
  24	  53
  24	  57
  25	  29
  25	  31
  25	  32
  25	  34
  25	  39
  25	  40
  25	  41
  25	  43
  25	  45
  25	  47
  25	  49
  25	  56
  26	  30
  26	  32
  26	  33
  26	  38
  26	  39
  26	  45
  26	  49
  26	  55
  26	  56
  26	  59
  27	  32
  27	  33
  27	  35
  27	  37
  27	  38
  27	  43
  27	  45
  27	  46
  27	  49
  27	  51
  27	  54
  27	  58
  27	  59
  28	  31
  28	  38
  28	  39
  28	  41
  28	  42
  28	  43
  28	  44
  28	  48
  28	  56
  28	  58
  29	  30
  29	  34
  29	  37
  29	  40
  29	  41
  29	  42
  29	  48
  29	  49
  29	  52
  29	  55
  30	  36
  30	  43
  30	  45
  30	  48
  30	  51
  30	  52
  30	  54
  30	  59
  31	  32
  31	  33
  31	  36
  31	  38
  31	  40
  31	  41
  31	  42
  31	  45
  31	  48
  31	  49
  31	  51
  31	  55
  31	  59
  32	  35
  32	  39
  32	  41
  32	  42
  32	  43
  32	  44
  32	  48
  32	  51
  32	  53
  32	  55
  33	  43
  33	  45
  33	  47
  33	  48
  33	  49
  33	  51
  33	  54
  34	  37
  34	  38
  34	  39
  34	  40
  34	  43
  34	  45
  34	  47
  34	  49
  34	  57
  34	  58
  34	  59
  35	  40
  35	  45
  35	  46
  35	  50
  35	  52
  35	  54
  35	  57
  35	  58
  36	  37
  36	  40
  36	  41
  36	  51
  37	  39
  37	  40
  37	  45
  37	  50
  37	  52
  37	  55
  37	  56
  38	  39
  38	  45
  38	  47
  38	  48
  38	  52
  38	  56
  38	  57
  38	  58
  39	  40
  39	  44
  39	  47
  39	  51
  39	  53
  39	  55
  39	  56
  39	  58
  40	  45
  40	  49
  40	  52
  40	  53
  40	  54
  40	  59
  41	  42
  41	  46
  41	  47
  41	  51
  41	  57
  41	  58
  42	  45
  42	  47
  42	  49
  42	  51
  42	  52
  43	  49
  43	  50
  43	  55
  44	  48
  44	  50
  44	  53
  44	  59
  45	  46
  45	  53
  46	  50
  47	  49
  47	  54
  48	  49
  48	  51
  48	  52
  48	  54
  48	  55
  49	  51
  49	  55
  49	  56
  50	  56
  50	  58
  51	  52
  51	  53
  52	  53
  53	  56
  53	  58
  53	  59
  54	  55
  55	  56
  55	  57
  55	  59
  56	  57
  56	  59
  57	  59
;
